benchmarks_CP/INST_49x49/40/inst49x49_40_46.dzn
S=7;
start=[|
27,	-1,	-1,	-1,	16,	-1,	29,	-1,	43,	-1,	-1,	17,	49,	-1,	-1,	19,	-1,	6,	-1,	-1,	14,	-1,	22,	-1,	-1,	35,	-1,	-1,	-1,	-1,	-1,	-1,	-1,	-1,	31,	24,	37,	25,	-1,	-1,	-1,	-1,	5,	-1,	10,	-1,	28,	-1,	-1|
-1,	25,	12,	-1,	-1,	-1,	-1,	28,	-1,	10,	-1,	42,	-1,	33,	-1,	46,	40,	-1,	-1,	47,	-1,	13,	-1,	-1,	-1,	-1,	45,	36,	22,	24,	-1,	29,	-1,	18,	-1,	31,	20,	-1,	-1,	2,	19,	9,	-1,	-1,	-1,	44,	-1,	32,	-1|
-1,	-1,	-1,	-1,	43,	2,	-1,	31,	-1,	5,	15,	-1,	-1,	-1,	-1,	23,	-1,	-1,	-1,	-1,	-1,	-1,	-1,	-1,	3,	-1,	-1,	-1,	-1,	-1,	-1,	-1,	-1,	35,	-1,	-1,	-1,	-1,	18,	27,	-1,	39,	-1,	-1,	-1,	8,	29,	-1,	-1|
-1,	-1,	31,	-1,	36,	-1,	-1,	-1,	-1,	-1,	16,	-1,	-1,	-1,	28,	-1,	24,	-1,	-1,	-1,	-1,	-1,	-1,	-1,	-1,	-1,	23,	14,	11,	-1,	-1,	-1,	12,	-1,	-1,	-1,	21,	17,	-1,	-1,	32,	-1,	48,	-1,	-1,	40,	42,	-1,	39|
-1,	-1,	-1,	-1,	-1,	-1,	-1,	23,	22,	-1,	-1,	-1,	-1,	-1,	-1,	38,	-1,	-1,	-1,	-1,	42,	32,	-1,	-1,	-1,	26,	-1,	-1,	-1,	-1,	-1,	-1,	-1,	-1,	-1,	-1,	5,	45,	43,	-1,	-1,	49,	-1,	-1,	21,	33,	35,	-1,	-1|
-1,	22,	-1,	-1,	17,	-1,	48,	-1,	45,	44,	21,	-1,	1,	-1,	43,	5,	18,	37,	-1,	3,	11,	16,	-1,	8,	-1,	10,	12,	25,	-1,	9,	2,	-1,	-1,	41,	-1,	-1,	36,	28,	40,	29,	-1,	-1,	-1,	19,	-1,	-1,	-1,	13,	15|
-1,	-1,	-1,	-1,	-1,	-1,	35,	-1,	-1,	12,	-1,	13,	-1,	27,	-1,	-1,	-1,	-1,	-1,	36,	-1,	-1,	17,	7,	43,	11,	-1,	-1,	-1,	30,	46,	-1,	-1,	-1,	-1,	3,	-1,	-1,	38,	-1,	-1,	4,	41,	-1,	-1,	14,	16,	2,	-1|
-1,	-1,	22,	-1,	-1,	13,	-1,	-1,	-1,	-1,	35,	-1,	-1,	19,	6,	-1,	28,	43,	-1,	40,	-1,	29,	-1,	36,	37,	-1,	17,	9,	-1,	34,	-1,	30,	-1,	-1,	-1,	-1,	41,	-1,	24,	-1,	16,	-1,	7,	-1,	-1,	25,	-1,	26,	-1|
-1,	44,	-1,	41,	-1,	-1,	28,	24,	17,	39,	-1,	-1,	-1,	-1,	-1,	48,	21,	-1,	-1,	9,	-1,	43,	-1,	20,	-1,	-1,	-1,	-1,	7,	-1,	-1,	49,	38,	36,	1,	-1,	-1,	23,	6,	-1,	-1,	14,	-1,	-1,	-1,	-1,	33,	-1,	-1|
-1,	-1,	-1,	24,	-1,	23,	33,	42,	-1,	-1,	-1,	49,	-1,	10,	1,	-1,	-1,	-1,	-1,	-1,	34,	18,	-1,	31,	41,	-1,	39,	4,	-1,	-1,	-1,	-1,	-1,	28,	-1,	-1,	7,	8,	-1,	9,	-1,	-1,	-1,	-1,	-1,	-1,	-1,	-1,	-1|
-1,	-1,	-1,	-1,	-1,	-1,	-1,	-1,	7,	-1,	43,	-1,	46,	-1,	49,	-1,	19,	18,	-1,	-1,	20,	-1,	-1,	35,	44,	-1,	-1,	-1,	-1,	-1,	-1,	-1,	-1,	-1,	17,	-1,	12,	-1,	-1,	36,	13,	-1,	-1,	23,	-1,	39,	-1,	14,	31|
10,	31,	6,	-1,	-1,	-1,	27,	-1,	37,	-1,	-1,	16,	22,	-1,	-1,	-1,	-1,	44,	36,	33,	-1,	-1,	-1,	-1,	-1,	-1,	49,	-1,	43,	41,	-1,	32,	18,	47,	8,	-1,	25,	-1,	-1,	20,	39,	-1,	-1,	-1,	-1,	-1,	-1,	24,	-1|
-1,	-1,	-1,	-1,	-1,	47,	43,	-1,	-1,	-1,	-1,	33,	-1,	-1,	-1,	41,	13,	-1,	38,	5,	-1,	46,	11,	-1,	-1,	-1,	16,	19,	-1,	37,	-1,	14,	-1,	25,	39,	-1,	-1,	-1,	-1,	-1,	-1,	-1,	22,	-1,	-1,	15,	-1,	-1,	21|
-1,	-1,	-1,	5,	48,	35,	38,	-1,	-1,	-1,	-1,	-1,	40,	-1,	16,	17,	-1,	-1,	-1,	-1,	29,	-1,	28,	-1,	-1,	47,	-1,	-1,	23,	6,	20,	46,	11,	-1,	10,	-1,	-1,	3,	-1,	-1,	-1,	37,	-1,	-1,	-1,	-1,	27,	-1,	-1|
38,	-1,	-1,	25,	-1,	29,	-1,	26,	4,	-1,	36,	44,	34,	-1,	48,	-1,	47,	-1,	10,	-1,	-1,	-1,	31,	12,	-1,	33,	1,	-1,	14,	45,	-1,	-1,	9,	-1,	-1,	-1,	-1,	-1,	41,	-1,	24,	23,	-1,	-1,	-1,	-1,	-1,	-1,	-1|
-1,	12,	16,	-1,	14,	-1,	30,	40,	33,	-1,	49,	28,	-1,	-1,	-1,	34,	42,	-1,	-1,	-1,	-1,	-1,	-1,	9,	-1,	-1,	-1,	-1,	35,	-1,	-1,	-1,	-1,	-1,	-1,	-1,	-1,	-1,	-1,	-1,	22,	-1,	-1,	29,	-1,	23,	-1,	21,	-1|
-1,	26,	27,	-1,	-1,	-1,	-1,	-1,	-1,	-1,	-1,	21,	23,	12,	-1,	-1,	-1,	-1,	-1,	28,	-1,	-1,	13,	16,	38,	-1,	37,	-1,	-1,	22,	11,	-1,	-1,	20,	-1,	29,	32,	-1,	9,	7,	-1,	-1,	-1,	-1,	33,	-1,	-1,	-1,	-1|
-1,	45,	7,	-1,	-1,	-1,	44,	32,	-1,	-1,	19,	-1,	-1,	-1,	46,	8,	11,	-1,	-1,	23,	-1,	-1,	-1,	-1,	36,	-1,	43,	-1,	-1,	-1,	-1,	-1,	29,	30,	6,	42,	-1,	-1,	35,	-1,	-1,	-1,	-1,	-1,	-1,	34,	13,	-1,	2|
24,	19,	13,	15,	-1,	49,	-1,	-1,	46,	-1,	10,	-1,	-1,	-1,	-1,	-1,	6,	-1,	-1,	-1,	-1,	44,	-1,	42,	8,	-1,	40,	-1,	12,	-1,	39,	-1,	-1,	21,	16,	48,	28,	-1,	-1,	-1,	-1,	33,	43,	-1,	-1,	7,	5,	-1,	4|
18,	-1,	-1,	-1,	-1,	-1,	-1,	-1,	-1,	-1,	-1,	-1,	8,	-1,	-1,	-1,	-1,	-1,	14,	-1,	-1,	28,	-1,	-1,	-1,	22,	11,	-1,	32,	33,	-1,	38,	-1,	-1,	-1,	-1,	-1,	-1,	5,	-1,	-1,	-1,	-1,	10,	-1,	45,	24,	-1,	12|
-1,	-1,	-1,	-1,	11,	31,	-1,	-1,	9,	-1,	-1,	-1,	-1,	-1,	41,	-1,	-1,	33,	-1,	-1,	35,	-1,	-1,	-1,	32,	-1,	34,	-1,	-1,	-1,	40,	-1,	-1,	-1,	-1,	49,	19,	46,	4,	-1,	-1,	38,	16,	28,	-1,	-1,	-1,	-1,	22|
-1,	16,	34,	47,	35,	38,	32,	-1,	-1,	-1,	-1,	-1,	-1,	15,	-1,	6,	14,	46,	45,	26,	-1,	-1,	-1,	3,	-1,	17,	5,	-1,	-1,	21,	-1,	43,	-1,	-1,	-1,	-1,	-1,	12,	-1,	-1,	-1,	-1,	-1,	40,	-1,	-1,	-1,	27,	-1|
48,	-1,	14,	-1,	-1,	44,	-1,	-1,	-1,	43,	-1,	36,	-1,	-1,	-1,	-1,	9,	-1,	12,	-1,	24,	-1,	-1,	34,	-1,	-1,	-1,	47,	3,	8,	30,	18,	-1,	5,	33,	-1,	-1,	13,	-1,	-1,	25,	29,	-1,	-1,	19,	42,	20,	-1,	45|
29,	7,	-1,	43,	-1,	-1,	2,	-1,	-1,	-1,	6,	-1,	4,	-1,	-1,	-1,	-1,	20,	-1,	48,	17,	-1,	-1,	-1,	-1,	27,	-1,	1,	28,	31,	10,	-1,	-1,	26,	-1,	-1,	-1,	33,	42,	-1,	-1,	-1,	-1,	-1,	-1,	-1,	21,	37,	-1|
42,	-1,	-1,	-1,	31,	-1,	-1,	-1,	-1,	28,	-1,	3,	5,	-1,	-1,	16,	36,	27,	30,	-1,	-1,	9,	29,	-1,	-1,	18,	20,	-1,	-1,	-1,	-1,	-1,	-1,	13,	45,	-1,	-1,	-1,	19,	48,	-1,	-1,	12,	-1,	-1,	2,	38,	-1,	-1|
-1,	6,	18,	-1,	-1,	-1,	-1,	-1,	29,	46,	-1,	-1,	38,	-1,	42,	4,	-1,	40,	-1,	-1,	33,	-1,	-1,	45,	12,	-1,	22,	-1,	-1,	-1,	19,	35,	-1,	-1,	-1,	15,	-1,	-1,	-1,	16,	14,	27,	-1,	31,	7,	-1,	-1,	-1,	-1|
-1,	-1,	49,	30,	-1,	-1,	-1,	2,	-1,	-1,	-1,	12,	-1,	-1,	-1,	-1,	-1,	19,	37,	-1,	-1,	-1,	-1,	-1,	11,	-1,	-1,	-1,	-1,	-1,	38,	7,	40,	-1,	29,	-1,	10,	-1,	21,	-1,	-1,	-1,	8,	-1,	28,	47,	-1,	-1,	32|
17,	-1,	41,	-1,	-1,	-1,	-1,	-1,	49,	1,	-1,	31,	-1,	11,	-1,	-1,	39,	8,	-1,	29,	22,	-1,	-1,	-1,	2,	15,	14,	-1,	-1,	-1,	-1,	44,	47,	-1,	-1,	-1,	-1,	-1,	-1,	-1,	26,	-1,	-1,	-1,	-1,	36,	-1,	-1,	-1|
-1,	38,	43,	16,	-1,	-1,	-1,	12,	-1,	25,	-1,	39,	-1,	-1,	-1,	-1,	-1,	14,	-1,	27,	15,	-1,	-1,	-1,	-1,	-1,	-1,	-1,	26,	-1,	-1,	6,	-1,	-1,	36,	10,	-1,	32,	-1,	18,	-1,	41,	24,	2,	-1,	28,	-1,	45,	-1|
-1,	-1,	39,	-1,	42,	26,	-1,	43,	-1,	9,	-1,	-1,	35,	-1,	-1,	12,	48,	-1,	3,	-1,	-1,	-1,	-1,	6,	33,	41,	24,	-1,	-1,	19,	-1,	25,	-1,	-1,	-1,	17,	-1,	-1,	29,	34,	40,	-1,	-1,	11,	4,	-1,	-1,	-1,	-1|
-1,	-1,	-1,	-1,	6,	-1,	-1,	-1,	-1,	17,	-1,	-1,	-1,	26,	18,	45,	-1,	-1,	-1,	-1,	4,	3,	-1,	13,	15,	-1,	-1,	2,	-1,	-1,	-1,	-1,	5,	12,	24,	-1,	-1,	31,	7,	-1,	-1,	-1,	-1,	39,	-1,	38,	8,	-1,	1|
-1,	41,	8,	12,	32,	-1,	-1,	21,	-1,	-1,	-1,	5,	-1,	-1,	-1,	-1,	26,	-1,	-1,	-1,	-1,	23,	-1,	49,	14,	36,	4,	-1,	-1,	2,	-1,	-1,	-1,	-1,	34,	38,	-1,	35,	39,	3,	28,	24,	-1,	-1,	-1,	-1,	-1,	-1,	18|
21,	4,	17,	33,	-1,	25,	20,	-1,	15,	18,	-1,	-1,	-1,	-1,	-1,	24,	-1,	9,	-1,	-1,	7,	34,	-1,	-1,	22,	39,	46,	16,	-1,	47,	-1,	-1,	45,	-1,	-1,	26,	-1,	-1,	8,	-1,	49,	44,	-1,	12,	-1,	31,	-1,	-1,	5|
-1,	13,	-1,	-1,	-1,	-1,	-1,	46,	-1,	-1,	4,	47,	-1,	-1,	-1,	-1,	34,	1,	17,	-1,	-1,	31,	-1,	-1,	-1,	28,	-1,	12,	-1,	38,	43,	-1,	-1,	40,	-1,	20,	-1,	-1,	-1,	-1,	-1,	5,	25,	-1,	14,	-1,	6,	-1,	27|
-1,	-1,	-1,	34,	-1,	5,	47,	36,	-1,	-1,	-1,	22,	-1,	-1,	33,	-1,	-1,	-1,	35,	-1,	-1,	1,	18,	26,	9,	8,	-1,	17,	44,	-1,	28,	-1,	7,	31,	-1,	14,	-1,	-1,	-1,	19,	4,	43,	21,	-1,	29,	13,	37,	-1,	3|
30,	-1,	-1,	-1,	-1,	-1,	-1,	-1,	-1,	-1,	-1,	-1,	-1,	-1,	20,	-1,	-1,	38,	34,	-1,	-1,	-1,	-1,	-1,	26,	25,	8,	40,	-1,	28,	17,	4,	-1,	45,	-1,	-1,	-1,	-1,	31,	-1,	37,	-1,	-1,	32,	-1,	-1,	14,	10,	13|
-1,	-1,	-1,	20,	26,	-1,	-1,	37,	3,	-1,	14,	-1,	-1,	46,	-1,	-1,	49,	-1,	-1,	2,	-1,	45,	36,	11,	-1,	13,	-1,	-1,	-1,	39,	41,	-1,	24,	43,	44,	18,	-1,	-1,	-1,	-1,	29,	-1,	23,	25,	-1,	-1,	-1,	-1,	-1|
-1,	10,	5,	37,	-1,	17,	-1,	22,	-1,	-1,	-1,	43,	-1,	25,	-1,	9,	-1,	-1,	-1,	14,	3,	-1,	44,	-1,	46,	-1,	28,	-1,	36,	-1,	23,	-1,	19,	42,	-1,	39,	-1,	-1,	-1,	-1,	-1,	-1,	31,	7,	-1,	21,	-1,	33,	35|
23,	33,	2,	-1,	-1,	43,	-1,	-1,	-1,	4,	8,	-1,	-1,	31,	-1,	-1,	-1,	-1,	28,	-1,	-1,	-1,	16,	-1,	-1,	9,	-1,	35,	-1,	32,	-1,	26,	-1,	7,	-1,	-1,	-1,	-1,	-1,	-1,	27,	-1,	-1,	-1,	11,	-1,	1,	-1,	-1|
-1,	-1,	-1,	35,	45,	-1,	-1,	-1,	-1,	30,	18,	-1,	-1,	-1,	27,	22,	7,	-1,	29,	-1,	-1,	39,	42,	-1,	49,	5,	47,	10,	-1,	48,	-1,	-1,	16,	46,	40,	-1,	-1,	-1,	26,	-1,	-1,	-1,	38,	-1,	-1,	-1,	15,	-1,	9|
15,	8,	-1,	31,	-1,	-1,	16,	-1,	-1,	-1,	32,	-1,	44,	-1,	-1,	40,	-1,	-1,	13,	11,	-1,	19,	33,	4,	-1,	23,	48,	-1,	10,	5,	22,	47,	3,	-1,	37,	21,	-1,	-1,	-1,	17,	-1,	-1,	-1,	-1,	-1,	-1,	49,	-1,	-1|
-1,	-1,	-1,	-1,	-1,	-1,	-1,	-1,	27,	15,	-1,	23,	10,	-1,	19,	33,	-1,	-1,	46,	-1,	45,	-1,	6,	-1,	-1,	32,	-1,	-1,	-1,	35,	-1,	-1,	-1,	11,	-1,	-1,	-1,	48,	-1,	-1,	9,	-1,	-1,	5,	-1,	-1,	-1,	39,	-1|
-1,	35,	44,	-1,	33,	14,	-1,	-1,	-1,	27,	39,	-1,	25,	-1,	-1,	37,	-1,	-1,	-1,	-1,	28,	11,	-1,	-1,	-1,	38,	-1,	-1,	-1,	-1,	12,	13,	-1,	3,	30,	-1,	48,	29,	22,	43,	-1,	-1,	9,	-1,	-1,	-1,	18,	-1,	-1|
8,	-1,	-1,	-1,	47,	-1,	26,	29,	31,	41,	-1,	-1,	-1,	-1,	15,	-1,	-1,	-1,	-1,	10,	-1,	12,	39,	-1,	-1,	-1,	9,	-1,	-1,	-1,	-1,	21,	-1,	-1,	-1,	32,	6,	5,	13,	33,	-1,	20,	-1,	36,	2,	-1,	-1,	40,	49|
22,	3,	-1,	-1,	-1,	16,	-1,	-1,	-1,	-1,	-1,	15,	47,	36,	-1,	14,	-1,	5,	-1,	34,	21,	-1,	-1,	-1,	-1,	-1,	33,	32,	41,	-1,	-1,	-1,	35,	-1,	-1,	-1,	18,	-1,	-1,	28,	8,	-1,	-1,	4,	6,	-1,	-1,	38,	11|
-1,	46,	20,	-1,	49,	-1,	-1,	-1,	48,	-1,	-1,	-1,	13,	-1,	-1,	-1,	-1,	-1,	40,	8,	36,	-1,	-1,	-1,	6,	29,	-1,	-1,	-1,	1,	5,	-1,	39,	24,	-1,	-1,	9,	-1,	-1,	-1,	10,	17,	-1,	-1,	23,	-1,	-1,	-1,	25|
6,	5,	28,	2,	29,	-1,	12,	35,	-1,	22,	3,	-1,	-1,	-1,	-1,	11,	32,	-1,	-1,	-1,	-1,	-1,	-1,	17,	10,	19,	-1,	-1,	-1,	-1,	-1,	-1,	25,	27,	-1,	-1,	-1,	36,	-1,	-1,	-1,	16,	14,	-1,	-1,	-1,	45,	-1,	24|
36,	48,	-1,	23,	-1,	9,	-1,	6,	5,	42,	46,	-1,	26,	-1,	-1,	49,	22,	12,	-1,	-1,	18,	-1,	20,	-1,	4,	-1,	-1,	-1,	45,	-1,	7,	-1,	-1,	-1,	-1,	-1,	-1,	-1,	-1,	11,	38,	-1,	-1,	13,	-1,	-1,	-1,	16,	-1|
31,	-1,	-1,	-1,	-1,	-1,	-1,	8,	-1,	-1,	-1,	11,	-1,	-1,	9,	-1,	-1,	-1,	-1,	19,	-1,	35,	-1,	14,	48,	44,	-1,	28,	-1,	-1,	-1,	36,	37,	-1,	-1,	45,	-1,	-1,	-1,	-1,	23,	-1,	-1,	-1,	5,	22,	41,	17,	-1|];
