sudoku-ls/benchmarks_LEQ/INST_49x49/40/inst49x49_40_46.txt
7
1
-1	-1	46	45	-1	-1	-1	-1	-1	-1	20	17	-1	-1	-1	19	-1	6	-1	-1	-1	38	22	-1	-1	-1	-1	44	-1	-1	1	23	-1	48	31	24	37	25	33	26	-1	7	5	9	-1	-1	-1	11	-1
-1	-1	-1	-1	-1	-1	7	-1	-1	10	-1	-1	39	-1	35	-1	-1	34	-1	47	-1	13	-1	-1	-1	-1	45	36	22	-1	6	29	-1	18	14	-1	-1	-1	-1	2	-1	9	17	-1	-1	-1	-1	-1	38
13	-1	-1	38	-1	-1	-1	-1	30	-1	15	46	-1	-1	17	-1	-1	22	49	-1	48	-1	9	-1	-1	37	-1	-1	47	4	-1	-1	-1	35	20	-1	-1	-1	18	-1	12	-1	-1	6	45	-1	-1	25	-1
-1	-1	31	-1	36	-1	1	7	-1	35	-1	18	29	8	28	27	24	-1	-1	15	41	33	-1	5	-1	-1	-1	14	-1	43	-1	10	12	-1	26	-1	21	-1	46	44	-1	-1	48	-1	-1	-1	-1	-1	-1
-1	18	19	28	-1	-1	-1	23	22	-1	-1	-1	-1	6	-1	-1	12	-1	-1	-1	-1	32	-1	-1	1	-1	-1	46	-1	-1	-1	-1	44	39	3	-1	-1	-1	-1	-1	11	-1	4	27	-1	33	35	-1	-1
39	-1	-1	42	-1	-1	-1	-1	-1	-1	-1	4	1	-1	43	5	-1	-1	-1	3	11	16	-1	-1	20	10	12	-1	-1	9	2	34	-1	-1	7	35	-1	28	-1	-1	-1	-1	46	19	-1	-1	-1	-1	15
44	-1	33	10	8	-1	-1	-1	-1	-1	47	13	-1	-1	-1	-1	29	-1	20	-1	-1	-1	-1	-1	43	11	21	-1	-1	30	-1	-1	-1	37	-1	3	-1	-1	38	22	48	4	41	-1	-1	-1	-1	2	-1
11	-1	-1	18	-1	13	8	1	-1	-1	35	-1	-1	19	6	-1	-1	43	23	-1	-1	29	-1	-1	-1	-1	-1	-1	-1	-1	-1	-1	-1	-1	-1	-1	-1	-1	-1	-1	-1	-1	-1	-1	38	-1	-1	26	-1
-1	-1	-1	-1	37	46	-1	-1	-1	-1	-1	-1	-1	-1	-1	-1	-1	11	47	9	-1	-1	32	20	13	-1	-1	15	-1	40	35	-1	-1	-1	-1	-1	-1	-1	6	30	-1	14	-1	42	-1	5	-1	12	8
-1	14	29	-1	-1	23	33	-1	44	-1	-1	49	-1	10	-1	25	-1	-1	2	32	34	18	-1	-1	-1	40	-1	-1	-1	27	13	45	-1	-1	-1	-1	-1	8	-1	9	-1	-1	36	20	-1	-1	-1	-1	-1
2	42	30	-1	-1	45	-1	-1	-1	21	-1	25	46	-1	-1	-1	19	18	-1	-1	-1	8	-1	-1	44	-1	-1	-1	-1	3	-1	33	4	-1	-1	11	12	-1	47	36	13	-1	6	-1	-1	39	34	-1	-1
-1	-1	-1	17	-1	-1	-1	-1	37	2	5	-1	-1	-1	-1	26	46	44	36	33	12	42	1	23	30	-1	-1	-1	-1	41	9	-1	18	-1	-1	28	25	38	-1	20	39	-1	-1	35	-1	29	11	24	40
-1	-1	36	40	-1	-1	43	9	-1	-1	-1	-1	-1	30	-1	-1	-1	7	38	5	-1	46	-1	-1	-1	6	-1	-1	-1	-1	24	14	-1	-1	-1	34	-1	-1	32	-1	35	10	-1	-1	-1	15	-1	-1	21
-1	-1	9	-1	-1	35	38	-1	-1	14	31	-1	-1	-1	16	17	30	39	-1	-1	-1	-1	-1	-1	-1	-1	-1	-1	23	6	20	46	11	-1	10	-1	-1	-1	-1	-1	-1	-1	45	-1	32	4	27	1	44
-1	17	-1	25	2	-1	-1	-1	4	-1	-1	-1	-1	-1	-1	-1	-1	21	-1	-1	19	-1	31	-1	-1	33	1	3	-1	45	27	8	9	49	-1	-1	15	43	-1	-1	24	-1	11	-1	39	-1	32	-1	42
32	-1	-1	-1	-1	-1	30	-1	-1	37	-1	-1	-1	-1	38	34	42	-1	-1	-1	-1	-1	-1	9	-1	46	-1	-1	35	-1	-1	24	48	-1	-1	27	-1	1	-1	-1	-1	11	20	-1	-1	23	-1	-1	-1
43	-1	-1	-1	34	-1	42	-1	18	-1	-1	21	-1	-1	40	15	-1	-1	-1	28	5	-1	-1	-1	38	48	37	6	-1	-1	11	3	46	-1	-1	29	32	-1	-1	7	2	25	49	-1	-1	35	30	8	-1
-1	-1	7	-1	-1	-1	-1	-1	39	-1	-1	-1	-1	22	46	-1	11	-1	-1	23	25	-1	-1	-1	36	-1	-1	49	18	-1	47	5	-1	-1	-1	-1	-1	10	35	12	-1	-1	1	-1	40	-1	-1	-1	-1
-1	-1	13	-1	23	-1	-1	-1	-1	-1	10	-1	-1	-1	-1	-1	-1	-1	-1	22	-1	-1	-1	42	8	45	-1	-1	12	-1	39	-1	-1	-1	-1	-1	28	-1	20	-1	34	33	43	14	25	7	5	-1	-1
18	-1	-1	-1	-1	-1	40	-1	-1	-1	-1	35	8	48	44	-1	17	-1	-1	-1	-1	28	21	-1	-1	22	11	23	-1	-1	36	38	2	-1	-1	16	-1	26	-1	6	-1	-1	-1	10	-1	45	24	-1	12
-1	-1	-1	8	-1	-1	10	30	-1	-1	-1	6	-1	1	-1	-1	-1	-1	-1	-1	-1	17	-1	-1	-1	2	-1	-1	-1	-1	-1	-1	-1	-1	-1	-1	19	-1	-1	-1	44	-1	-1	28	15	-1	36	48	-1
19	16	-1	47	-1	38	-1	-1	13	20	42	-1	-1	-1	23	-1	-1	46	45	-1	49	-1	-1	3	-1	-1	-1	-1	-1	21	25	43	-1	-1	48	-1	8	12	-1	-1	-1	-1	-1	-1	-1	-1	4	-1	29
-1	1	14	-1	-1	-1	-1	-1	-1	-1	22	36	37	-1	31	2	9	-1	-1	38	-1	4	10	-1	-1	16	-1	47	-1	-1	30	-1	-1	-1	-1	-1	-1	-1	-1	49	-1	29	35	-1	-1	42	20	-1	45
-1	7	-1	43	22	-1	-1	-1	-1	-1	-1	19	4	-1	3	-1	25	-1	-1	-1	17	-1	49	-1	35	-1	-1	-1	-1	31	-1	15	-1	26	23	-1	40	-1	-1	-1	36	-1	-1	30	-1	-1	-1	-1	-1
-1	-1	-1	26	-1	-1	-1	25	35	-1	33	-1	5	-1	-1	-1	-1	-1	-1	7	-1	9	-1	32	23	18	20	24	37	17	-1	-1	14	13	45	6	4	-1	19	48	-1	-1	12	-1	44	-1	38	-1	-1
28	-1	18	-1	-1	-1	-1	-1	-1	46	23	-1	-1	47	42	-1	-1	40	41	21	-1	48	-1	45	-1	-1	-1	37	-1	11	-1	-1	-1	-1	-1	-1	-1	-1	-1	-1	-1	27	-1	-1	7	-1	25	5	-1
-1	24	-1	-1	4	-1	-1	-1	14	-1	-1	-1	-1	-1	13	-1	15	-1	37	-1	-1	-1	-1	46	11	31	-1	-1	27	36	-1	-1	-1	6	-1	-1	-1	-1	-1	-1	-1	-1	-1	-1	-1	-1	-1	-1	-1
-1	-1	-1	-1	-1	-1	-1	-1	49	1	-1	-1	-1	11	-1	-1	39	8	5	29	-1	21	19	-1	-1	15	-1	-1	46	-1	4	44	47	16	-1	-1	38	-1	-1	32	26	35	-1	43	-1	-1	-1	18	-1
9	38	-1	16	-1	-1	-1	-1	-1	25	-1	-1	31	-1	-1	13	-1	-1	-1	27	-1	-1	40	-1	-1	42	35	-1	-1	20	-1	-1	49	-1	36	-1	46	-1	-1	-1	-1	41	-1	-1	-1	28	-1	45	-1
-1	28	-1	-1	42	26	-1	-1	-1	-1	-1	2	-1	-1	-1	-1	-1	31	-1	49	-1	5	45	6	33	41	24	-1	-1	19	37	-1	13	-1	18	17	-1	-1	29	34	-1	22	-1	-1	-1	20	46	-1	-1
-1	23	48	29	-1	22	-1	-1	-1	-1	37	-1	-1	26	-1	45	-1	-1	-1	-1	-1	-1	-1	-1	-1	-1	-1	-1	-1	42	-1	27	-1	-1	-1	-1	-1	-1	7	-1	-1	21	32	39	-1	-1	8	34	-1
-1	-1	8	12	-1	11	31	21	-1	6	13	-1	20	-1	-1	-1	-1	29	25	-1	-1	23	27	-1	14	-1	-1	48	-1	2	-1	-1	-1	-1	-1	38	-1	-1	39	3	28	24	15	47	-1	-1	9	-1	18
-1	-1	-1	33	-1	25	20	14	15	-1	28	-1	42	29	11	-1	-1	-1	-1	-1	-1	34	-1	-1	-1	39	46	16	1	-1	-1	41	-1	-1	-1	26	-1	-1	-1	13	-1	44	-1	-1	43	-1	-1	-1	5
-1	-1	10	3	-1	18	-1	-1	8	-1	4	-1	33	-1	-1	-1	-1	1	-1	30	2	-1	37	44	-1	-1	-1	12	39	38	43	48	23	40	-1	-1	-1	-1	-1	-1	15	5	25	-1	-1	41	-1	35	27
-1	-1	40	34	-1	-1	-1	-1	-1	-1	-1	-1	-1	-1	33	-1	-1	-1	-1	42	39	-1	-1	26	-1	-1	25	17	-1	-1	28	-1	7	-1	-1	14	27	-1	12	-1	-1	43	-1	-1	29	-1	-1	-1	3
30	-1	11	-1	-1	39	41	-1	21	-1	-1	-1	-1	-1	-1	-1	-1	38	34	-1	-1	15	3	-1	26	-1	-1	-1	33	28	17	-1	6	-1	-1	23	-1	-1	-1	24	37	-1	-1	-1	12	-1	-1	-1	13
-1	-1	42	-1	-1	-1	6	37	-1	-1	-1	40	-1	46	-1	21	-1	35	-1	-1	-1	-1	-1	-1	34	-1	-1	-1	-1	-1	-1	-1	-1	-1	44	-1	-1	-1	10	-1	-1	28	-1	25	8	-1	22	-1	-1
49	-1	5	-1	-1	17	-1	-1	-1	11	-1	-1	2	25	-1	9	16	-1	24	-1	3	-1	44	-1	-1	-1	28	41	-1	18	23	-1	-1	-1	-1	39	13	-1	-1	-1	-1	-1	31	-1	-1	21	-1	-1	-1
-1	-1	-1	13	12	-1	-1	-1	38	-1	8	-1	24	-1	-1	-1	-1	42	-1	17	10	14	16	-1	21	9	18	-1	-1	32	-1	-1	-1	7	-1	40	44	19	-1	-1	-1	-1	-1	-1	11	-1	1	-1	48
25	-1	-1	-1	45	21	-1	13	-1	-1	-1	34	-1	-1	27	22	-1	-1	29	-1	6	-1	-1	-1	49	5	-1	10	-1	48	-1	2	-1	46	40	-1	-1	-1	26	14	33	-1	38	-1	-1	-1	-1	-1	-1
15	-1	38	-1	18	28	-1	20	-1	26	32	9	-1	39	36	-1	-1	-1	13	11	-1	-1	-1	4	-1	-1	48	-1	-1	5	-1	-1	3	-1	37	-1	35	2	25	-1	-1	6	42	-1	-1	27	49	-1	-1
34	-1	-1	-1	-1	-1	-1	-1	-1	-1	-1	23	-1	42	19	-1	4	26	46	-1	45	2	-1	43	17	32	-1	20	-1	35	21	-1	-1	11	-1	-1	-1	48	-1	38	-1	-1	18	5	-1	-1	-1	39	-1
-1	35	-1	-1	-1	14	-1	-1	-1	-1	-1	-1	-1	49	-1	-1	-1	17	6	-1	-1	-1	5	-1	42	38	-1	21	-1	-1	-1	-1	-1	-1	-1	-1	48	29	-1	-1	46	-1	9	8	-1	10	18	15	-1
8	-1	-1	19	-1	-1	-1	-1	31	-1	44	24	-1	-1	-1	35	-1	-1	-1	10	-1	-1	-1	25	16	1	9	-1	38	-1	42	-1	-1	-1	11	32	-1	-1	-1	33	30	20	-1	-1	-1	-1	7	-1	49
-1	3	-1	-1	30	-1	-1	17	-1	45	-1	-1	47	-1	25	-1	-1	5	-1	-1	-1	-1	23	-1	31	7	-1	32	41	46	48	-1	-1	-1	-1	-1	-1	42	-1	28	-1	26	-1	4	6	1	-1	38	11
41	46	-1	-1	-1	-1	18	-1	-1	-1	7	32	-1	38	-1	-1	-1	16	40	-1	36	-1	-1	15	-1	29	-1	-1	-1	1	-1	-1	-1	-1	-1	-1	-1	-1	-1	35	10	17	47	37	-1	-1	12	-1	25
6	5	-1	2	-1	42	-1	35	-1	22	-1	-1	-1	-1	-1	11	-1	-1	44	-1	-1	37	46	-1	-1	-1	-1	-1	8	-1	26	40	25	-1	-1	41	-1	36	1	4	7	-1	-1	-1	-1	48	-1	43	-1
-1	-1	-1	-1	-1	-1	17	-1	-1	-1	46	14	26	-1	29	-1	-1	-1	-1	41	-1	24	-1	47	4	34	30	8	45	-1	7	-1	43	-1	2	25	-1	-1	27	-1	38	15	-1	-1	35	-1	-1	16	-1
-1	15	32	-1	-1	4	25	-1	16	-1	30	-1	12	43	-1	-1	-1	-1	-1	-1	-1	-1	26	-1	-1	-1	27	-1	-1	29	-1	-1	37	-1	47	-1	-1	-1	-1	-1	-1	-1	3	21	5	-1	41	-1	-1
49 
29 41 22 45
44 45 19 14
31 22 37 9
13 15 2 23
27 7 14 4
29 32 15 48
22 23 14 22
12 35 18 16
49 15 18 48
25 15 48 5
30 44 48 40
28 30 7 10
21 29 47 27
21 23 29 18
25 3 12 39
24 8 25 16
9 9 32 34
31 15 48 21
34 5 41 22
4 45 38 41
1 29 8 33
10 35 21 49
13 10 39 1
8 39 9 8
13 34 20 11
10 33 27 22
21 28 6 33
43 21 40 9
15 6 14 21
31 45 8 32
49 1 19 10
34 27 30 9
18 1 41 23
22 3 46 29
19 23 35 19
49 32 38 29
44 3 20 43
21 42 19 12
40 22 17 19
16 8 11 42
32 2 23 33
5 21 25 1
9 22 18 27
3 20 22 39
34 14 47 47
35 35 49 21
17 10 13 6
12 45 8 23
47 30 11 15
